data/solutions/recovery/wellformed/moderate/flexible/wellformed_moderate_instance64/71.sol
Elapsed time: 100.06
Upper bound: 4862.0
Planning weighted value: 134013.0
C[0]=4862.0
C[1]=4861.0
C[2]=4861.0
C[3]=4860.0
C[4]=0.0
y[0]=1
y[1]=0
y[2]=1
y[3]=0
y[4]=0
y[5]=2
y[6]=2
y[7]=1
y[8]=0
y[9]=1
y[10]=0
y[11]=1
y[12]=0
y[13]=0
y[14]=1
y[15]=1
y[16]=3
y[17]=0
y[18]=3
y[19]=2
y[20]=3
y[21]=2
y[22]=0
y[23]=3
y[24]=3
y[25]=3
y[26]=3
y[27]=3
y[28]=2
y[29]=0
y[30]=0
y[31]=1
y[32]=3
y[33]=0
y[34]=0
y[35]=0
y[36]=2
y[37]=1
y[38]=2
y[39]=2
y[40]=0
