data/solutions/recovery/wellformed/moderate/flexible/wellformed_moderate_instance64/71.log

Log started (V12.6.3.0) Fri Apr 20 20:54:55 2018

New value for default parallel thread count: 1

Problem '/tmp/tmp1d0ywZ.pyomo.lp' read.
Read time = 0.00 sec. (0.09 ticks)

Problem name         : /tmp/tmp1d0ywZ.pyomo.lp
Objective sense      : Minimize
Variables            :     212  [Nneg: 1,  Binary: 205,  General Integer: 6]
Objective nonzeros   :       1
Linear constraints   :      94  [Less: 46,  Equal: 48]
  Nonzeros           :    6023
  RHS nonzeros       :      83

Variables            : Min LB: 0.000000         Max UB: 1.000000       
Objective nonzeros   : Min   : 1.000000         Max   : 1.000000       
Linear constraints   :
  Nonzeros           : Min   : 1.000000         Max   : 1963.000       
  RHS nonzeros       : Min   : 1.000000         Max   : 5.000000       
Tried aggregator 2 times.
MIP Presolve eliminated 45 rows and 56 columns.
Aggregator did 7 substitutions.
Reduced MIP has 42 rows, 149 columns, and 393 nonzeros.
Reduced MIP has 148 binaries, 1 generals, 0 SOSs, and 0 indicators.
Presolve time = 0.00 sec. (1.46 ticks)
Found incumbent of value 19444.000000 after 0.00 sec. (1.78 ticks)
Probing time = 0.00 sec. (0.12 ticks)
Cover probing fixed 0 vars, tightened 6 bounds.
Tried aggregator 1 time.
Reduced MIP has 42 rows, 149 columns, and 393 nonzeros.
Reduced MIP has 148 binaries, 1 generals, 0 SOSs, and 0 indicators.
Presolve time = 0.00 sec. (0.27 ticks)
Probing time = 0.00 sec. (0.08 ticks)
Clique table members: 37.
MIP emphasis: balance optimality and feasibility.
MIP search method: dynamic search.
Parallel mode: none, using 1 thread.
Root relaxation solution time = 0.00 sec. (0.11 ticks)

        Nodes                                         Cuts/
   Node  Left     Objective  IInf  Best Integer    Best Bound    ItCnt     Gap

*     0+    0                        19444.0000     1963.0000            89.90%
      0     0     4861.0000     5    19444.0000     4861.0000        5   75.00%
*     0+    0                         5481.0000     4861.0000            11.31%
      0     0     4861.0000     9     5481.0000      Fract: 4       13   11.31%
*     0+    0                         5363.0000     4861.0000             9.36%
      0     0     4861.0000    12     5363.0000       Cuts: 7       22    9.36%
*     0+    0                         5091.0000     4861.0000             4.52%
*     0+    0                         5033.0000     4861.0000             3.42%
*     0+    0                         4973.0000     4861.0000             2.25%
      0     2     4861.0000     6     4973.0000     4861.0000       22    2.25%
Elapsed time = 0.01 sec. (7.12 ticks, tree = 0.01 MB, solutions = 6)
*    40+   38                         4950.0000     4861.0000             1.80%
*    60+   56                         4905.0000     4861.0000             0.90%
*   160+  116                         4885.0000     4861.0000             0.49%
*   210+  132                         4879.0000     4861.0000             0.37%
*   800+  440                         4871.0000     4861.0000             0.21%
*   917   509      integral     0     4870.0000     4861.0000     2042    0.18%
*  1730   408      integral     0     4867.0000     4861.0000     3790    0.12%
*  1820+  335                         4865.0000     4861.0000             0.08%
*  2020+  333                         4864.0000     4861.0000             0.06%
   2020   332     4864.0000     4     4864.0000     4861.0000     4285    0.06%
   2021   330        cutoff           4864.0000     4861.0000     4289    0.06%
   2022   330     4861.0000     6     4864.0000     4861.0000     4291    0.06%
   2023   331     4861.0000     6     4864.0000     4861.0000     4292    0.06%
   2024   331     4861.0000     5     4864.0000     4861.0000     4294    0.06%
   2025   332     4861.0000     5     4864.0000     4861.0000     4296    0.06%
   2026   333     4861.0000     6     4864.0000     4861.0000     4297    0.06%
   2027   333     4861.0000     5     4864.0000     4861.0000     4298    0.06%
   2028   333     4861.0000     5     4864.0000     4861.0000     4300    0.06%
   8364  3572     4861.0000     5     4864.0000     4861.0000    15951    0.06%
Elapsed time = 1.17 sec. (960.80 ticks, tree = 0.98 MB, solutions = 15)
* 11320+ 5158                         4863.0000     4861.0000             0.04%
* 12254  5106      integral     0     4862.0000     4861.0000    22958    0.02%
  25006  8393     4861.0000     8     4862.0000     4861.0000    44855    0.02%
  25007  8394     4861.0000     6     4862.0000     4861.0000    44856    0.02%
  25008  8395     4861.0000     6     4862.0000     4861.0000    44857    0.02%
  25009  8396     4861.0000     6     4862.0000     4861.0000    44859    0.02%
  25010  8397     4861.0000     6     4862.0000     4861.0000    44860    0.02%
  25011  8398     4861.0000     6     4862.0000     4861.0000    44861    0.02%
  25012  8399     4861.0000     6     4862.0000     4861.0000    44863    0.02%
  25013  8400     4861.0000     6     4862.0000     4861.0000    44864    0.02%
  25014  8401     4861.0000     6     4862.0000     4861.0000    44865    0.02%
  25015  8402     4861.0000     6     4862.0000     4861.0000    44866    0.02%
Elapsed time = 2.43 sec. (1914.84 ticks, tree = 2.50 MB, solutions = 17)
  43753 10815     4861.0000     6     4862.0000     4861.0000    74761    0.02%
  43754 10814    infeasible           4862.0000     4861.0000    74762    0.02%
  43755 10813    infeasible           4862.0000     4861.0000    74762    0.02%
  43756 10814     4861.0000     8     4862.0000     4861.0000    74766    0.02%
  43757 10815     4861.0000     7     4862.0000     4861.0000    74767    0.02%
  43758 10816     4861.0000     5     4862.0000     4861.0000    74768    0.02%
  43759 10817     4861.0000     6     4862.0000     4861.0000    74770    0.02%
  43760 10818     4861.0000     6     4862.0000     4861.0000    74772    0.02%
  43761 10817    infeasible           4862.0000     4861.0000    74774    0.02%
  43762 10816    infeasible           4862.0000     4861.0000    74775    0.02%
Elapsed time = 3.65 sec. (2869.50 ticks, tree = 3.10 MB, solutions = 17)
  63120 13959     4861.0000     8     4862.0000     4861.0000   107569    0.02%
  63121 13960     4861.0000     6     4862.0000     4861.0000   107572    0.02%
  63122 13959    infeasible           4862.0000     4861.0000   107573    0.02%
  63123 13958    infeasible           4862.0000     4861.0000   107573    0.02%
  63124 13957    infeasible           4862.0000     4861.0000   107578    0.02%
  63125 13956    infeasible           4862.0000     4861.0000   107580    0.02%
  63126 13957     4861.0000     6     4862.0000     4861.0000   107582    0.02%
  63127 13958     4861.0000     6     4862.0000     4861.0000   107583    0.02%
  63128 13959     4861.0000     6     4862.0000     4861.0000   107584    0.02%
  63129 13960     4861.0000     6     4862.0000     4861.0000   107585    0.02%
Elapsed time = 4.85 sec. (3824.10 ticks, tree = 3.87 MB, solutions = 17)
  81840 14633     4861.0000     5     4862.0000     4861.0000   137016    0.02%
  81841 14634     4861.0000     6     4862.0000     4861.0000   137017    0.02%
  81842 14633    infeasible           4862.0000     4861.0000   137020    0.02%
  81843 14632    infeasible           4862.0000     4861.0000   137022    0.02%
  81844 14631    infeasible           4862.0000     4861.0000   137022    0.02%
  81845 14630    infeasible           4862.0000     4861.0000   137024    0.02%
  81846 14629    infeasible           4862.0000     4861.0000   137025    0.02%
  81847 14628    infeasible           4862.0000     4861.0000   137025    0.02%
  81848 14627    infeasible           4862.0000     4861.0000   137025    0.02%
  81849 14626    infeasible           4862.0000     4861.0000   137027    0.02%
Elapsed time = 6.05 sec. (4778.12 ticks, tree = 4.04 MB, solutions = 17)
 100141 15492    infeasible           4862.0000     4861.0000   164381    0.02%
 100142 15491    infeasible           4862.0000     4861.0000   164383    0.02%
 100143 15490    infeasible           4862.0000     4861.0000   164385    0.02%
 100144 15489    infeasible           4862.0000     4861.0000   164388    0.02%
 100145 15488    infeasible           4862.0000     4861.0000   164391    0.02%
 100146 15487    infeasible           4862.0000     4861.0000   164391    0.02%
 100147 15486    infeasible           4862.0000     4861.0000   164391    0.02%
 100148 15485    infeasible           4862.0000     4861.0000   164392    0.02%
 100149 15484    infeasible           4862.0000     4861.0000   164393    0.02%
 100150 15483    infeasible           4862.0000     4861.0000   164395    0.02%
Elapsed time = 7.28 sec. (5732.75 ticks, tree = 4.26 MB, solutions = 17)
 119054 16316     4861.0000     6     4862.0000     4861.0000   192333    0.02%
 119055 16317     4861.0000     6     4862.0000     4861.0000   192334    0.02%
 119056 16318     4861.0000     6     4862.0000     4861.0000   192335    0.02%
 119057 16319     4861.0000     6     4862.0000     4861.0000   192336    0.02%
 119058 16320     4861.0000     6     4862.0000     4861.0000   192337    0.02%
 119059 16321     4861.0000     6     4862.0000     4861.0000   192338    0.02%
 119060 16322     4861.0000     6     4862.0000     4861.0000   192339    0.02%
 119061 16323     4861.0000     6     4862.0000     4861.0000   192340    0.02%
 119062 16324     4861.0000     6     4862.0000     4861.0000   192341    0.02%
 119063 16325     4861.0000     6     4862.0000     4861.0000   192342    0.02%
Elapsed time = 8.49 sec. (6686.78 ticks, tree = 4.47 MB, solutions = 17)
 137643 19483     4861.0000     6     4862.0000     4861.0000   222488    0.02%
 137644 19484     4861.0000     5     4862.0000     4861.0000   222489    0.02%
 137645 19485     4861.0000     6     4862.0000     4861.0000   222490    0.02%
 137646 19486     4861.0000     6     4862.0000     4861.0000   222492    0.02%
 137647 19485    infeasible           4862.0000     4861.0000   222493    0.02%
 137648 19486     4861.0000     7     4862.0000     4861.0000   222495    0.02%
 137649 19487     4861.0000     5     4862.0000     4861.0000   222496    0.02%
 137650 19488     4861.0000     6     4862.0000     4861.0000   222497    0.02%
 137651 19487    infeasible           4862.0000     4861.0000   222498    0.02%
 137652 19486    infeasible           4862.0000     4861.0000   222505    0.02%
Elapsed time = 9.70 sec. (7640.79 ticks, tree = 5.72 MB, solutions = 17)
 154615 21621     4861.0000     6     4862.0000     4861.0000   253322    0.02%
 154616 21622     4861.0000     8     4862.0000     4861.0000   253324    0.02%
 154617 21621    infeasible           4862.0000     4861.0000   253324    0.02%
 154618 21620    infeasible           4862.0000     4861.0000   253329    0.02%
 154619 21619    infeasible           4862.0000     4861.0000   253329    0.02%
 154620 21618    infeasible           4862.0000     4861.0000   253333    0.02%
 154621 21617    infeasible           4862.0000     4861.0000   253337    0.02%
 154622 21616    infeasible           4862.0000     4861.0000   253341    0.02%
 154623 21615    infeasible           4862.0000     4861.0000   253345    0.02%
 154624 21614    infeasible           4862.0000     4861.0000   253346    0.02%
Elapsed time = 10.89 sec. (8594.95 ticks, tree = 6.23 MB, solutions = 17)
 172236 23477     4861.0000     8     4862.0000     4861.0000   282902    0.02%
 172237 23478     4861.0000     6     4862.0000     4861.0000   282905    0.02%
 172238 23477    infeasible           4862.0000     4861.0000   282907    0.02%
 172239 23476    infeasible           4862.0000     4861.0000   282911    0.02%
 172240 23477     4861.0000     6     4862.0000     4861.0000   282912    0.02%
 172241 23478     4861.0000     7     4862.0000     4861.0000   282916    0.02%
 172242 23479     4861.0000     5     4862.0000     4861.0000   282917    0.02%
 172243 23480     4861.0000     6     4862.0000     4861.0000   282918    0.02%
 172244 23481     4861.0000     6     4862.0000     4861.0000   282919    0.02%
 227419 28438     4861.0000     6     4862.0000     4861.0000   375712    0.02%
Elapsed time = 15.71 sec. (12409.66 ticks, tree = 7.94 MB, solutions = 17)
 300490 37658     4861.0000     4     4862.0000     4861.0000   497209    0.02%
 300491 37659     4861.0000     4     4862.0000     4861.0000   497210    0.02%
 300492 37660     4861.0000     4     4862.0000     4861.0000   497214    0.02%
 300493 37661     4861.0000     3     4862.0000     4861.0000   497215    0.02%
 300494 37660    infeasible           4862.0000     4861.0000   497217    0.02%
 300495 37659    infeasible           4862.0000     4861.0000   497220    0.02%
 300496 37658    infeasible           4862.0000     4861.0000   497223    0.02%
 300497 37657    infeasible           4862.0000     4861.0000   497226    0.02%
 300498 37656    infeasible           4862.0000     4861.0000   497226    0.02%
 300499 37655    infeasible           4862.0000     4861.0000   497229    0.02%
Elapsed time = 20.49 sec. (16224.84 ticks, tree = 11.20 MB, solutions = 17)
 367673 45924    infeasible           4862.0000     4861.0000   609429    0.02%
 367674 45923    infeasible           4862.0000     4861.0000   609431    0.02%
 367675 45922    infeasible           4862.0000     4861.0000   609435    0.02%
 367676 45921    infeasible           4862.0000     4861.0000   609439    0.02%
 367677 45922     4861.0000     8     4862.0000     4861.0000   609444    0.02%
 367678 45923     4861.0000     6     4862.0000     4861.0000   609446    0.02%
 367679 45922    infeasible           4862.0000     4861.0000   609448    0.02%
 367680 45923     4861.0000     6     4862.0000     4861.0000   609449    0.02%
 367681 45924     4861.0000     6     4862.0000     4861.0000   609452    0.02%
 367682 45925     4861.0000     6     4862.0000     4861.0000   609453    0.02%
Elapsed time = 25.21 sec. (20040.40 ticks, tree = 13.26 MB, solutions = 17)
 430791 50541     4861.0000     6     4862.0000     4861.0000   714859    0.02%
 430792 50541     4861.0000     8     4862.0000     4861.0000   714865    0.02%
 430793 50542     4861.0000     6     4862.0000     4861.0000   714867    0.02%
 430794 50543     4861.0000     6     4862.0000     4861.0000   714869    0.02%
 430795 50542    infeasible           4862.0000     4861.0000   714872    0.02%
 430796 50541    infeasible           4862.0000     4861.0000   714874    0.02%
 430797 50540    infeasible           4862.0000     4861.0000   714875    0.02%
 430798 50539    infeasible           4862.0000     4861.0000   714878    0.02%
 430799 50538    infeasible           4862.0000     4861.0000   714884    0.02%
 430800 50537    infeasible           4862.0000     4861.0000   714890    0.02%
Elapsed time = 30.01 sec. (23855.81 ticks, tree = 14.40 MB, solutions = 17)
 495753 55249    infeasible           4862.0000     4861.0000   823367    0.02%
 495754 55248    infeasible           4862.0000     4861.0000   823371    0.02%
 495755 55247    infeasible           4862.0000     4861.0000   823373    0.02%
 495756 55246    infeasible           4862.0000     4861.0000   823373    0.02%
 495757 55245    infeasible           4862.0000     4861.0000   823377    0.02%
 495758 55244    infeasible           4862.0000     4861.0000   823377    0.02%
 495759 55243    infeasible           4862.0000     4861.0000   823383    0.02%
 495760 55244     4861.0000     6     4862.0000     4861.0000   823386    0.02%
 495761 55245     4861.0000     5     4862.0000     4861.0000   823387    0.02%
 495762 55244    infeasible           4862.0000     4861.0000   823394    0.02%
Elapsed time = 34.75 sec. (27671.32 ticks, tree = 15.54 MB, solutions = 17)
 558380 60083    infeasible           4862.0000     4861.0000   929531    0.02%
 558381 60082    infeasible           4862.0000     4861.0000   929532    0.02%
 558382 60081    infeasible           4862.0000     4861.0000   929535    0.02%
 558383 60082     4861.0000     5     4862.0000     4861.0000   929537    0.02%
 558384 60083     4861.0000     8     4862.0000     4861.0000   929542    0.02%
 558385 60084     4861.0000     6     4862.0000     4861.0000   929543    0.02%
 558386 60083    infeasible           4862.0000     4861.0000   929546    0.02%
 558387 60084     4861.0000     6     4862.0000     4861.0000   929547    0.02%
 558388 60083    infeasible           4862.0000     4861.0000   929549    0.02%
 558389 60082    infeasible           4862.0000     4861.0000   929551    0.02%
Elapsed time = 39.53 sec. (31486.76 ticks, tree = 16.72 MB, solutions = 17)
 621305 62299    infeasible           4862.0000     4861.0000  1038826    0.02%
 621306 62298    infeasible           4862.0000     4861.0000  1038826    0.02%
 621307 62297    infeasible           4862.0000     4861.0000  1038831    0.02%
 621308 62298     4861.0000     6     4862.0000     4861.0000  1038832    0.02%
 621309 62298     4861.0000     7     4862.0000     4861.0000  1038837    0.02%
 621310 62299     4861.0000     5     4862.0000     4861.0000  1038838    0.02%
 621311 62299     4861.0000     8     4862.0000     4861.0000  1038840    0.02%
 621312 62300     4861.0000     6     4862.0000     4861.0000  1038841    0.02%
 621313 62299    infeasible           4862.0000     4861.0000  1038844    0.02%
 621314 62300     4861.0000     6     4862.0000     4861.0000  1038845    0.02%
Elapsed time = 44.30 sec. (35302.66 ticks, tree = 17.27 MB, solutions = 17)
 681194 66784    infeasible           4862.0000     4861.0000  1142516    0.02%
 681195 66783    infeasible           4862.0000     4861.0000  1142516    0.02%
 681196 66782    infeasible           4862.0000     4861.0000  1142522    0.02%
 681197 66781    infeasible           4862.0000     4861.0000  1142524    0.02%
 681198 66780    infeasible           4862.0000     4861.0000  1142524    0.02%
 681199 66781     4861.0000     5     4862.0000     4861.0000  1142527    0.02%
 681200 66782     4861.0000     6     4862.0000     4861.0000  1142528    0.02%
 681201 66781    infeasible           4862.0000     4861.0000  1142534    0.02%
 681202 66782     4861.0000     8     4862.0000     4861.0000  1142538    0.02%
 681203 66783     4861.0000     6     4862.0000     4861.0000  1142539    0.02%
Elapsed time = 48.94 sec. (39118.11 ticks, tree = 20.29 MB, solutions = 17)
 745719 72363    infeasible           4862.0000     4861.0000  1255305    0.02%
 745720 72362    infeasible           4862.0000     4861.0000  1255310    0.02%
 745721 72361    infeasible           4862.0000     4861.0000  1255311    0.02%
 745722 72362     4861.0000     5     4862.0000     4861.0000  1255314    0.02%
 745723 72363     4861.0000     8     4862.0000     4861.0000  1255316    0.02%
 745724 72364     4861.0000     8     4862.0000     4861.0000  1255317    0.02%
 745725 72365     4861.0000     8     4862.0000     4861.0000  1255318    0.02%
 745726 72366     4861.0000     8     4862.0000     4861.0000  1255319    0.02%
 745727 72367     4861.0000     8     4862.0000     4861.0000  1255320    0.02%
 745728 72368     4861.0000     8     4862.0000     4861.0000  1255321    0.02%
Elapsed time = 53.72 sec. (42934.30 ticks, tree = 21.69 MB, solutions = 17)
 807710 78779    infeasible           4862.0000     4861.0000  1360076    0.02%
 807711 78778    infeasible           4862.0000     4861.0000  1360078    0.02%
 807712 78779     4861.0000     6     4862.0000     4861.0000  1360080    0.02%
 807713 78780     4861.0000     6     4862.0000     4861.0000  1360083    0.02%
 807714 78779    infeasible           4862.0000     4861.0000  1360085    0.02%
 807715 78779     4861.0000     8     4862.0000     4861.0000  1360088    0.02%
 807716 78780     4861.0000     6     4862.0000     4861.0000  1360089    0.02%
 807717 78779    infeasible           4862.0000     4861.0000  1360091    0.02%
 807718 78778    infeasible           4862.0000     4861.0000  1360092    0.02%
 807719 78779     4861.0000     5     4862.0000     4861.0000  1360095    0.02%
Elapsed time = 58.53 sec. (46749.97 ticks, tree = 23.27 MB, solutions = 17)
 865068 83303    infeasible           4862.0000     4861.0000  1452337    0.02%
 865069 83304     4861.0000     6     4862.0000     4861.0000  1452338    0.02%
 865070 83305     4861.0000     6     4862.0000     4861.0000  1452340    0.02%
 865071 83306     4861.0000     6     4862.0000     4861.0000  1452342    0.02%
 865072 83305    infeasible           4862.0000     4861.0000  1452342    0.02%
 865073 83306     4861.0000     6     4862.0000     4861.0000  1452343    0.02%
 865074 83307     4861.0000     6     4862.0000     4861.0000  1452344    0.02%
 865075 83308     4861.0000     6     4862.0000     4861.0000  1452345    0.02%
 865076 83309     4861.0000     6     4862.0000     4861.0000  1452346    0.02%
 865077 83310     4861.0000     6     4862.0000     4861.0000  1452347    0.02%
Elapsed time = 63.30 sec. (50565.89 ticks, tree = 24.37 MB, solutions = 17)
 920418 87246     4861.0000     6     4862.0000     4861.0000  1542515    0.02%
 920419 87247     4861.0000     6     4862.0000     4861.0000  1542516    0.02%
 920420 87248     4861.0000     6     4862.0000     4861.0000  1542517    0.02%
 920421 87249     4861.0000     6     4862.0000     4861.0000  1542518    0.02%
 920422 87250     4861.0000     6     4862.0000     4861.0000  1542521    0.02%
 920423 87251     4861.0000     6     4862.0000     4861.0000  1542522    0.02%
 920424 87252     4861.0000     6     4862.0000     4861.0000  1542523    0.02%
 920425 87253     4861.0000     6     4862.0000     4861.0000  1542524    0.02%
 920426 87254     4861.0000     6     4862.0000     4861.0000  1542525    0.02%
 920427 87255     4861.0000     6     4862.0000     4861.0000  1542526    0.02%
Elapsed time = 68.05 sec. (54381.46 ticks, tree = 25.33 MB, solutions = 17)
 985989 88722     4861.0000     6     4862.0000     4861.0000  1639345    0.02%
 985990 88723     4861.0000     6     4862.0000     4861.0000  1639347    0.02%
 985991 88723     4861.0000     8     4862.0000     4861.0000  1639351    0.02%
 985992 88722    infeasible           4862.0000     4861.0000  1639353    0.02%
 985993 88723     4861.0000     6     4862.0000     4861.0000  1639354    0.02%
 985994 88722    infeasible           4862.0000     4861.0000  1639355    0.02%
 985995 88723     4861.0000     6     4862.0000     4861.0000  1639357    0.02%
 985996 88724     4861.0000     6     4862.0000     4861.0000  1639358    0.02%
 985997 88723    infeasible           4862.0000     4861.0000  1639360    0.02%
 985998 88722    infeasible           4862.0000     4861.0000  1639360    0.02%
Elapsed time = 72.81 sec. (58196.76 ticks, tree = 25.71 MB, solutions = 17)
 1052076 92233    infeasible           4862.0000     4861.0000  1739895    0.02%
 1052077 92234     4861.0000     6     4862.0000     4861.0000  1739896    0.02%
 1052078 92235     4861.0000     6     4862.0000     4861.0000  1739897    0.02%
 1052079 92236     4861.0000     6     4862.0000     4861.0000  1739898    0.02%
 1052080 92237     4861.0000     6     4862.0000     4861.0000  1739899    0.02%
 1052081 92236    infeasible           4862.0000     4861.0000  1739901    0.02%
 1052082 92237     4861.0000     6     4862.0000     4861.0000  1739902    0.02%
 1052083 92238     4861.0000     6     4862.0000     4861.0000  1739903    0.02%
 1052084 92239     4861.0000     6     4862.0000     4861.0000  1739904    0.02%
 1052085 92238    infeasible           4862.0000     4861.0000  1739905    0.02%
Elapsed time = 77.54 sec. (62012.30 ticks, tree = 26.57 MB, solutions = 17)
 1109980 95973    infeasible           4862.0000     4861.0000  1834879    0.02%
 1109981 95974     4861.0000     6     4862.0000     4861.0000  1834881    0.02%
 1109982 95973    infeasible           4862.0000     4861.0000  1834881    0.02%
 1109983 95972    infeasible           4862.0000     4861.0000  1834881    0.02%
 1109984 95971    infeasible           4862.0000     4861.0000  1834884    0.02%
 1109985 95970    infeasible           4862.0000     4861.0000  1834889    0.02%
 1109986 95969    infeasible           4862.0000     4861.0000  1834893    0.02%
 1109987 95969     4861.0000     8     4862.0000     4861.0000  1834896    0.02%
 1109988 95969     4861.0000     8     4862.0000     4861.0000  1834899    0.02%
 1109989 95970     4861.0000     6     4862.0000     4861.0000  1834900    0.02%
Elapsed time = 82.30 sec. (65827.55 ticks, tree = 27.50 MB, solutions = 17)
 1176221 99157     4861.0000     6     4862.0000     4861.0000  1936016    0.02%
 1176222 99158     4861.0000     6     4862.0000     4861.0000  1936017    0.02%
 1176223 99159     4861.0000     6     4862.0000     4861.0000  1936018    0.02%
 1176224 99160     4861.0000     6     4862.0000     4861.0000  1936019    0.02%
 1176225 99161     4861.0000     6     4862.0000     4861.0000  1936020    0.02%
 1176226 99162     4861.0000     6     4862.0000     4861.0000  1936021    0.02%
 1176227 99163     4861.0000     6     4862.0000     4861.0000  1936022    0.02%
 1176228 99164     4861.0000     6     4862.0000     4861.0000  1936023    0.02%
 1176229 99165     4861.0000     6     4862.0000     4861.0000  1936024    0.02%
 1176230 99166     4861.0000     6     4862.0000     4861.0000  1936025    0.02%
Elapsed time = 87.03 sec. (69642.95 ticks, tree = 28.29 MB, solutions = 17)
 1218696 101993    infeasible           4862.0000     4861.0000  2008183    0.02%
 1218697 101992    infeasible           4862.0000     4861.0000  2008183    0.02%
 1218698 101993     4861.0000     6     4862.0000     4861.0000  2008185    0.02%
 1218699 101993     4861.0000     7     4862.0000     4861.0000  2008187    0.02%
 1218700 101994     4861.0000     5     4862.0000     4861.0000  2008188    0.02%
 1218701 101995     4861.0000     6     4862.0000     4861.0000  2008189    0.02%
 1218702 101996     4861.0000     6     4862.0000     4861.0000  2008190    0.02%
 1218703 101997     4861.0000     8     4862.0000     4861.0000  2008192    0.02%
 1218704 101996    infeasible           4862.0000     4861.0000  2008194    0.02%
 1218705 101995    infeasible           4862.0000     4861.0000  2008194    0.02%
Elapsed time = 91.71 sec. (73458.11 ticks, tree = 28.98 MB, solutions = 17)
 1274436 105879    infeasible           4862.0000     4861.0000  2095052    0.02%
 1274437 105878    infeasible           4862.0000     4861.0000  2095054    0.02%
 1274438 105877    infeasible           4862.0000     4861.0000  2095056    0.02%
 1274439 105878     4861.0000     6     4862.0000     4861.0000  2095058    0.02%
 1274440 105879     4861.0000     6     4862.0000     4861.0000  2095059    0.02%
 1274441 105879     4861.0000     8     4862.0000     4861.0000  2095062    0.02%
 1274442 105880     4861.0000     6     4862.0000     4861.0000  2095066    0.02%
 1274443 105881     4861.0000     6     4862.0000     4861.0000  2095067    0.02%
 1274444 105882     4861.0000     6     4862.0000     4861.0000  2095068    0.02%
 1274445 105883     4861.0000     6     4862.0000     4861.0000  2095069    0.02%
Elapsed time = 96.19 sec. (77273.55 ticks, tree = 29.93 MB, solutions = 17)

Root node processing (before b&c):
  Real time             =    0.01 sec. (7.14 ticks)
Sequential b&c:
  Real time             =   99.99 sec. (80346.11 ticks)
                          ------------
Total (root+branch&cut) =  100.00 sec. (80353.25 ticks)

Solution pool: 17 solutions saved.

MIP - Time limit exceeded, integer feasible:  Objective =  4.8620000000e+03
Current MIP best bound =  4.8610000000e+03 (gap = 1, 0.02%)
Solution time =  100.00 sec.  Iterations = 2173433  Nodes = 1320597 (108598)
Deterministic time = 80353.25 ticks  (803.53 ticks/sec)


Incumbent solution written to file '/tmp/tmpCCKrkf.cplex.sol'.
